26 144 23 149 101 89 104 186 175 11 123 4 31 173 162 183 158 129 60 182 19 174 27 188 47 185 10 85 95 128 59 53 32 160 172 97 156 0 147 12 103 139 179 146 80 68 33 110 74 28 165 181 105 55 14 49 21 77 2 119 199 38 137 17 71 126 197 82 159 122 100 22 72 52 93 90 1 16 70 37 48 76 120 125 15 9 94 92 145 64 191 135 195 166 150 39 54 121 169 131 113 69 29 30 66 163 177 130 194 143 133 142 118 8 170 134 141 65 87 193 153 58 50 178 187 152 7 189 114 46 161 171 98 63 78 41 36 164 67 84 108 154 20 151 51 184 6 168 112 180 140 190 109 43 79 127 45 136 88 86 75 44 56 167 81 107 25 111 42 73 157 176 115 35 13 138 102 96 24 99 148 62 106 18 117 198 40 61 91 124 83 116 57 34 192 196 132 5 155 3 

